Minimize
  - 8 y_0 - 83 y_1 - 93 y_2 - 6 y_3 - 52 y_4 - 60 y_5 - 80 y_6 - 46 y_7
   - 38 y_8 - 49 y_9 - 46 y_10 - 87 y_11 - 98 y_12 - 79 y_14 - 44 y_15
   - 60 y_16 - 53 y_17 - 44 y_18 - 54 y_19 + 30 x_0_8 + 90 x_0_12
   + 73 x_0_14 + 46 x_0_19 + 80 x_1_3 + 66 x_1_10 + 46 x_1_12 + 49 x_1_18
   + 88 x_2_3 + 54 x_2_6 + 61 x_2_8 + 50 x_2_11 + 55 x_2_15 + 33 x_2_16
   + 58 x_3_5 + 40 x_3_7 + 46 x_3_17 + 37 x_4_6 + 16 x_4_8 + 36 x_4_10
   + 52 x_4_13 + 30 x_4_15 + 31 x_4_18 + 49 x_5_2 + 22 x_5_8 + 28 x_5_9
   + 60 x_5_13 + 26 x_5_16 + 27 x_5_18 + 26 x_5_19 + 43 x_6_8 + 72 x_6_10
   + 62 x_6_12 + 83 x_6_14 + 43 x_6_16 + 12 x_7_15 + 35 x_7_19 + 33 x_8_15
   + 52 x_9_11 + 43 x_9_14 + 40 x_9_18 + 6 x_9_19 + 76 x_10_11 + 60 x_10_12
   + 32 x_10_16 + 85 x_11_17 + 98 x_12_13 + 58 x_12_15 + 39 x_12_16
   + 62 x_12_17 + 44 x_13_15 + 44 x_13_18 + 40 x_14_16 + 83 x_14_18
   + 27 x_15_16 + 46 x_16_18 + 42 x_18_19 + 1080 Constant
Subject To
 c_0: y_16 = 1
 c_1_0: y_0 >= 1
 c_1_1: y_1 >= 1
 c_1_2: y_2 >= 1
 c_1_3: y_3 >= 1
 c_1_4: y_4 >= 1
 c_1_5: y_5 >= 1
 c_1_6: y_6 >= 1
 c_1_7: y_7 >= 1
 c_1_8: y_8 >= 1
 c_1_9: y_9 >= 1
 c_1_10: y_10 >= 1
 c_1_11: y_11 >= 1
 c_1_12: y_12 >= 1
 c_1_13: y_13 >= 1
 c_1_14: y_14 >= 1
 c_1_15: y_15 >= 1
 c_1_16: y_16 >= 1
 c_1_17: y_17 >= 1
 c_1_18: y_18 >= 1
 c_1_19: y_19 >= 1
 c_2_0: - 2 y_0 + x_0_8 + x_0_12 + x_0_14 + x_0_19 = 0
 c_2_1: - 2 y_1 + x_1_3 + x_1_10 + x_1_12 + x_1_18 = 0
 c_2_2: - 2 y_2 + x_2_3 + x_2_6 + x_2_8 + x_2_11 + x_2_15 + x_2_16 + x_5_2
   = 0
 c_2_3: - 2 y_3 + x_1_3 + x_2_3 + x_3_5 + x_3_7 + x_3_17 = 0
 c_2_4: - 2 y_4 + x_4_6 + x_4_8 + x_4_10 + x_4_13 + x_4_15 + x_4_18 = 0
 c_2_5: - 2 y_5 + x_3_5 + x_5_2 + x_5_8 + x_5_9 + x_5_13 + x_5_16 + x_5_18
   + x_5_19 = 0
 c_2_6: - 2 y_6 + x_2_6 + x_4_6 + x_6_8 + x_6_10 + x_6_12 + x_6_14 + x_6_16
   = 0
 c_2_7: - 2 y_7 + x_3_7 + x_7_15 + x_7_19 = 0
 c_2_8: - 2 y_8 + x_0_8 + x_2_8 + x_4_8 + x_5_8 + x_6_8 + x_8_15 = 0
 c_2_9: - 2 y_9 + x_5_9 + x_9_11 + x_9_14 + x_9_18 + x_9_19 = 0
 c_2_10: - 2 y_10 + x_1_10 + x_4_10 + x_6_10 + x_10_11 + x_10_12 + x_10_16
   = 0
 c_2_11: - 2 y_11 + x_2_11 + x_9_11 + x_10_11 + x_11_17 = 0
 c_2_12: - 2 y_12 + x_0_12 + x_1_12 + x_6_12 + x_10_12 + x_12_13 + x_12_15
   + x_12_16 + x_12_17 = 0
 c_2_13: - 2 y_13 + x_4_13 + x_5_13 + x_12_13 + x_13_15 + x_13_18 = 0
 c_2_14: - 2 y_14 + x_0_14 + x_6_14 + x_9_14 + x_14_16 + x_14_18 = 0
 c_2_15: - 2 y_15 + x_2_15 + x_4_15 + x_7_15 + x_8_15 + x_12_15 + x_13_15
   + x_15_16 = 0
 c_2_16: - 2 y_16 + x_2_16 + x_5_16 + x_6_16 + x_10_16 + x_12_16 + x_14_16
   + x_15_16 + x_16_18 = 0
 c_2_17: - 2 y_17 + x_3_17 + x_11_17 + x_12_17 = 0
 c_2_18: - 2 y_18 + x_1_18 + x_4_18 + x_5_18 + x_9_18 + x_13_18 + x_14_18
   + x_16_18 + x_18_19 = 0
 c_2_19: - 2 y_19 + x_0_19 + x_5_19 + x_7_19 + x_9_19 + x_18_19 = 0
Bounds
 Constant = 1
Binaries
 y_0 y_1 y_2 y_3 y_4 y_5 y_6 y_7 y_8 y_9 y_10 y_11 y_12 y_13 y_14 y_15 y_16
 y_17 y_18 y_19 x_0_8 x_0_12 x_0_14 x_0_19 x_1_3 x_1_10 x_1_12 x_1_18 x_2_3
 x_2_6 x_2_8 x_2_11 x_2_15 x_2_16 x_3_5 x_3_7 x_3_17 x_4_6 x_4_8 x_4_10
 x_4_13 x_4_15 x_4_18 x_5_2 x_5_8 x_5_9 x_5_13 x_5_16 x_5_18 x_5_19 x_6_8
 x_6_10 x_6_12 x_6_14 x_6_16 x_7_15 x_7_19 x_8_15 x_9_11 x_9_14 x_9_18
 x_9_19 x_10_11 x_10_12 x_10_16 x_11_17 x_12_13 x_12_15 x_12_16 x_12_17
 x_13_15 x_13_18 x_14_16 x_14_18 x_15_16 x_16_18 x_18_19
End
